cleaned_string_benchmarks/operator-statistics/sv-comp/17754_jbmc-regression_RegexMatches02_Main_0.out
 re.++ 	9
assert	2
str.to.re	3
variable	1
str.in.re	1
re.*	1
re.range	7
re.allchar	1
 re.union 	1
